##################################################################
# LAMMPS input file generated using pylion 0.5.2
# simulation name: ringsimulation
#
# pylion is written and maintained by Dimitris Trypogeorgos
# and Elliot Bentine. Download it from
# https://bitbucket.org/dtrypogeorgos/pylion
#
# If you find it useful please cite <paper>.
##################################################################


units si
atom_style charge

# Creating simulation box...
boundary m m m
region simulationDomain block -0.01  0.01 -0.01 0.01 -0.01 0.01 units box
create_box 1 simulationDomain

# Configure neighbour list...
neighbor 1 nsq
neigh_modify once yes

# Configure pairwise interactions for long range Coulombics only...
pair_style coul/cut 10
pair_coeff * *

# Placing individual ions...
create_atoms 1 single 0.0 0.0 9.5e-05 units box

# Species...
mass 1 6.642156e-26
set type 1 charge 1.6021764599999998e-19
group 1 type 1

timestep 2.652582384864922e-10

# Configuring additional output to flush buffer during simulation...
thermo 10000
thermo_style custom step cpu
thermo_modify flush yes

# Time integration...
group nonRigidBody union all
fix timeIntegrator nonRigidBody nve


# Creating a point Surface Electrode Trap... (fixID=4435133720704)
variable phase44351337207040		equal "1.884956e+08*step*dt"
variable oscEX4435133720704 atom "(1.487881e-09)*((-3*(x - (-3.035065e-04))*z/sqrt((x - (-3.035065e-04))^2+(y - (9.856663e-05))^2+z^2)^5) + (-3*(x - (-2.987642e-04))*z/sqrt((x - (-2.987642e-04))^2+(y - (1.067805e-04))^2+z^2)^5) + (-3*(x - (-2.940219e-04))*z/sqrt((x - (-2.940219e-04))^2+(y - (1.149944e-04))^2+z^2)^5) + (-3*(x - (-2.892796e-04))*z/sqrt((x - (-2.892796e-04))^2+(y - (1.232083e-04))^2+z^2)^5) + (-3*(x - (-2.845374e-04))*z/sqrt((x - (-2.845374e-04))^2+(y - (1.314222e-04))^2+z^2)^5) + (-3*(x - (-2.797951e-04))*z/sqrt((x - (-2.797951e-04))^2+(y - (1.396361e-04))^2+z^2)^5) + (-3*(x - (-2.750528e-04))*z/sqrt((x - (-2.750528e-04))^2+(y - (1.478499e-04))^2+z^2)^5) + (-3*(x - (-2.703105e-04))*z/sqrt((x - (-2.703105e-04))^2+(y - (1.560638e-04))^2+z^2)^5) + (-3*(x - (-2.655682e-04))*z/sqrt((x - (-2.655682e-04))^2+(y - (1.642777e-04))^2+z^2)^5) + (-3*(x - (-2.608259e-04))*z/sqrt((x - (-2.608259e-04))^2+(y - (1.724916e-04))^2+z^2)^5) + (-3*(x - (-2.560836e-04))*z/sqrt((x - (-2.560836e-04))^2+(y - (1.807055e-04))^2+z^2)^5) + (-3*(x - (-2.513413e-04))*z/sqrt((x - (-2.513413e-04))^2+(y - (1.889194e-04))^2+z^2)^5) + (-3*(x - (-2.465990e-04))*z/sqrt((x - (-2.465990e-04))^2+(y - (1.971333e-04))^2+z^2)^5) + (-3*(x - (-2.418568e-04))*z/sqrt((x - (-2.418568e-04))^2+(y - (2.053472e-04))^2+z^2)^5) + (-3*(x - (-2.371145e-04))*z/sqrt((x - (-2.371145e-04))^2+(y - (2.135610e-04))^2+z^2)^5) + (-3*(x - (-3.082488e-04))*z/sqrt((x - (-3.082488e-04))^2+(y - (7.392497e-05))^2+z^2)^5) + (-3*(x - (-3.035065e-04))*z/sqrt((x - (-3.035065e-04))^2+(y - (8.213886e-05))^2+z^2)^5) + (-3*(x - (-2.987642e-04))*z/sqrt((x - (-2.987642e-04))^2+(y - (9.035275e-05))^2+z^2)^5) + (-3*(x - (-2.940219e-04))*z/sqrt((x - (-2.940219e-04))^2+(y - (9.856663e-05))^2+z^2)^5) + (-3*(x - (-2.892796e-04))*z/sqrt((x - (-2.892796e-04))^2+(y - (1.067805e-04))^2+z^2)^5) + (-3*(x - (-2.845374e-04))*z/sqrt((x - (-2.845374e-04))^2+(y - (1.149944e-04))^2+z^2)^5) + (-3*(x - (-2.797951e-04))*z/sqrt((x - (-2.797951e-04))^2+(y - (1.232083e-04))^2+z^2)^5) + (-3*(x - (-2.750528e-04))*z/sqrt((x - (-2.750528e-04))^2+(y - (1.314222e-04))^2+z^2)^5) + (-3*(x - (-2.703105e-04))*z/sqrt((x - (-2.703105e-04))^2+(y - (1.396361e-04))^2+z^2)^5) + (-3*(x - (-2.655682e-04))*z/sqrt((x - (-2.655682e-04))^2+(y - (1.478499e-04))^2+z^2)^5) + (-3*(x - (-2.608259e-04))*z/sqrt((x - (-2.608259e-04))^2+(y - (1.560638e-04))^2+z^2)^5) + (-3*(x - (-2.560836e-04))*z/sqrt((x - (-2.560836e-04))^2+(y - (1.642777e-04))^2+z^2)^5) + (-3*(x - (-2.513413e-04))*z/sqrt((x - (-2.513413e-04))^2+(y - (1.724916e-04))^2+z^2)^5) + (-3*(x - (-2.465990e-04))*z/sqrt((x - (-2.465990e-04))^2+(y - (1.807055e-04))^2+z^2)^5) + (-3*(x - (-2.418568e-04))*z/sqrt((x - (-2.418568e-04))^2+(y - (1.889194e-04))^2+z^2)^5) + (-3*(x - (-2.371145e-04))*z/sqrt((x - (-2.371145e-04))^2+(y - (1.971333e-04))^2+z^2)^5) + (-3*(x - (-2.323722e-04))*z/sqrt((x - (-2.323722e-04))^2+(y - (2.053472e-04))^2+z^2)^5) + (-3*(x - (-2.276299e-04))*z/sqrt((x - (-2.276299e-04))^2+(y - (2.135610e-04))^2+z^2)^5) + (-3*(x - (-2.228876e-04))*z/sqrt((x - (-2.228876e-04))^2+(y - (2.217749e-04))^2+z^2)^5) + (-3*(x - (-2.181453e-04))*z/sqrt((x - (-2.181453e-04))^2+(y - (2.299888e-04))^2+z^2)^5) + (-3*(x - (-3.129911e-04))*z/sqrt((x - (-3.129911e-04))^2+(y - (4.928332e-05))^2+z^2)^5) + (-3*(x - (-3.082488e-04))*z/sqrt((x - (-3.082488e-04))^2+(y - (5.749720e-05))^2+z^2)^5) + (-3*(x - (-3.035065e-04))*z/sqrt((x - (-3.035065e-04))^2+(y - (6.571109e-05))^2+z^2)^5) + (-3*(x - (-2.987642e-04))*z/sqrt((x - (-2.987642e-04))^2+(y - (7.392497e-05))^2+z^2)^5) + (-3*(x - (-2.940219e-04))*z/sqrt((x - (-2.940219e-04))^2+(y - (8.213886e-05))^2+z^2)^5) + (-3*(x - (-2.892796e-04))*z/sqrt((x - (-2.892796e-04))^2+(y - (9.035275e-05))^2+z^2)^5) + (-3*(x - (-2.845374e-04))*z/sqrt((x - (-2.845374e-04))^2+(y - (9.856663e-05))^2+z^2)^5) + (-3*(x - (-2.797951e-04))*z/sqrt((x - (-2.797951e-04))^2+(y - (1.067805e-04))^2+z^2)^5) + (-3*(x - (-2.750528e-04))*z/sqrt((x - (-2.750528e-04))^2+(y - (1.149944e-04))^2+z^2)^5) + (-3*(x - (-2.703105e-04))*z/sqrt((x - (-2.703105e-04))^2+(y - (1.232083e-04))^2+z^2)^5) + (-3*(x - (-2.655682e-04))*z/sqrt((x - (-2.655682e-04))^2+(y - (1.314222e-04))^2+z^2)^5) + (-3*(x - (-2.608259e-04))*z/sqrt((x - (-2.608259e-04))^2+(y - (1.396361e-04))^2+z^2)^5) + (-3*(x - (-2.560836e-04))*z/sqrt((x - (-2.560836e-04))^2+(y - (1.478499e-04))^2+z^2)^5) + (-3*(x - (-2.513413e-04))*z/sqrt((x - (-2.513413e-04))^2+(y - (1.560638e-04))^2+z^2)^5) + (-3*(x - (-2.465990e-04))*z/sqrt((x - (-2.465990e-04))^2+(y - (1.642777e-04))^2+z^2)^5) + (-3*(x - (-2.418568e-04))*z/sqrt((x - (-2.418568e-04))^2+(y - (1.724916e-04))^2+z^2)^5) + (-3*(x - (-2.371145e-04))*z/sqrt((x - (-2.371145e-04))^2+(y - (1.807055e-04))^2+z^2)^5) + (-3*(x - (-2.323722e-04))*z/sqrt((x - (-2.323722e-04))^2+(y - (1.889194e-04))^2+z^2)^5) + (-3*(x - (-2.276299e-04))*z/sqrt((x - (-2.276299e-04))^2+(y - (1.971333e-04))^2+z^2)^5) + (-3*(x - (-2.228876e-04))*z/sqrt((x - (-2.228876e-04))^2+(y - (2.053472e-04))^2+z^2)^5) + (-3*(x - (-2.181453e-04))*z/sqrt((x - (-2.181453e-04))^2+(y - (2.135610e-04))^2+z^2)^5) + (-3*(x - (-2.134030e-04))*z/sqrt((x - (-2.134030e-04))^2+(y - (2.217749e-04))^2+z^2)^5) + (-3*(x - (-2.086607e-04))*z/sqrt((x - (-2.086607e-04))^2+(y - (2.299888e-04))^2+z^2)^5) + (-3*(x - (-2.039184e-04))*z/sqrt((x - (-2.039184e-04))^2+(y - (2.382027e-04))^2+z^2)^5) + (-3*(x - (-1.991762e-04))*z/sqrt((x - (-1.991762e-04))^2+(y - (2.464166e-04))^2+z^2)^5) + (-3*(x - (-3.177334e-04))*z/sqrt((x - (-3.177334e-04))^2+(y - (2.464166e-05))^2+z^2)^5) + (-3*(x - (-3.129911e-04))*z/sqrt((x - (-3.129911e-04))^2+(y - (3.285554e-05))^2+z^2)^5) + (-3*(x - (-3.082488e-04))*z/sqrt((x - (-3.082488e-04))^2+(y - (4.106943e-05))^2+z^2)^5) + (-3*(x - (-3.035065e-04))*z/sqrt((x - (-3.035065e-04))^2+(y - (4.928332e-05))^2+z^2)^5) + (-3*(x - (-2.987642e-04))*z/sqrt((x - (-2.987642e-04))^2+(y - (5.749720e-05))^2+z^2)^5) + (-3*(x - (-2.940219e-04))*z/sqrt((x - (-2.940219e-04))^2+(y - (6.571109e-05))^2+z^2)^5) + (-3*(x - (-2.892796e-04))*z/sqrt((x - (-2.892796e-04))^2+(y - (7.392497e-05))^2+z^2)^5) + (-3*(x - (-2.845374e-04))*z/sqrt((x - (-2.845374e-04))^2+(y - (8.213886e-05))^2+z^2)^5) + (-3*(x - (-2.797951e-04))*z/sqrt((x - (-2.797951e-04))^2+(y - (9.035275e-05))^2+z^2)^5) + (-3*(x - (-2.750528e-04))*z/sqrt((x - (-2.750528e-04))^2+(y - (9.856663e-05))^2+z^2)^5) + (-3*(x - (-2.703105e-04))*z/sqrt((x - (-2.703105e-04))^2+(y - (1.067805e-04))^2+z^2)^5) + (-3*(x - (-2.655682e-04))*z/sqrt((x - (-2.655682e-04))^2+(y - (1.149944e-04))^2+z^2)^5) + (-3*(x - (-2.608259e-04))*z/sqrt((x - (-2.608259e-04))^2+(y - (1.232083e-04))^2+z^2)^5) + (-3*(x - (-2.560836e-04))*z/sqrt((x - (-2.560836e-04))^2+(y - (1.314222e-04))^2+z^2)^5) + (-3*(x - (-2.513413e-04))*z/sqrt((x - (-2.513413e-04))^2+(y - (1.396361e-04))^2+z^2)^5) + (-3*(x - (-2.465990e-04))*z/sqrt((x - (-2.465990e-04))^2+(y - (1.478499e-04))^2+z^2)^5) + (-3*(x - (-2.418568e-04))*z/sqrt((x - (-2.418568e-04))^2+(y - (1.560638e-04))^2+z^2)^5) + (-3*(x - (-2.371145e-04))*z/sqrt((x - (-2.371145e-04))^2+(y - (1.642777e-04))^2+z^2)^5) + (-3*(x - (-2.323722e-04))*z/sqrt((x - (-2.323722e-04))^2+(y - (1.724916e-04))^2+z^2)^5) + (-3*(x - (-2.276299e-04))*z/sqrt((x - (-2.276299e-04))^2+(y - (1.807055e-04))^2+z^2)^5) + (-3*(x - (-2.228876e-04))*z/sqrt((x - (-2.228876e-04))^2+(y - (1.889194e-04))^2+z^2)^5) + (-3*(x - (-2.181453e-04))*z/sqrt((x - (-2.181453e-04))^2+(y - (1.971333e-04))^2+z^2)^5) + (-3*(x - (-2.134030e-04))*z/sqrt((x - (-2.134030e-04))^2+(y - (2.053472e-04))^2+z^2)^5) + (-3*(x - (-2.086607e-04))*z/sqrt((x - (-2.086607e-04))^2+(y - (2.135610e-04))^2+z^2)^5) + (-3*(x - (-2.039184e-04))*z/sqrt((x - (-2.039184e-04))^2+(y - (2.217749e-04))^2+z^2)^5) + (-3*(x - (-1.991762e-04))*z/sqrt((x - (-1.991762e-04))^2+(y - (2.299888e-04))^2+z^2)^5) + (-3*(x - (-1.944339e-04))*z/sqrt((x - (-1.944339e-04))^2+(y - (2.382027e-04))^2+z^2)^5) + (-3*(x - (-1.896916e-04))*z/sqrt((x - (-1.896916e-04))^2+(y - (2.464166e-04))^2+z^2)^5) + (-3*(x - (-1.849493e-04))*z/sqrt((x - (-1.849493e-04))^2+(y - (2.546305e-04))^2+z^2)^5) + (-3*(x - (-1.802070e-04))*z/sqrt((x - (-1.802070e-04))^2+(y - (2.628444e-04))^2+z^2)^5) + (-3*(x - (-3.177334e-04))*z/sqrt((x - (-3.177334e-04))^2+(y - (8.213886e-06))^2+z^2)^5) + (-3*(x - (-3.129911e-04))*z/sqrt((x - (-3.129911e-04))^2+(y - (1.642777e-05))^2+z^2)^5) + (-3*(x - (-3.082488e-04))*z/sqrt((x - (-3.082488e-04))^2+(y - (2.464166e-05))^2+z^2)^5) + (-3*(x - (-3.035065e-04))*z/sqrt((x - (-3.035065e-04))^2+(y - (3.285554e-05))^2+z^2)^5) + (-3*(x - (-2.987642e-04))*z/sqrt((x - (-2.987642e-04))^2+(y - (4.106943e-05))^2+z^2)^5) + (-3*(x - (-2.940219e-04))*z/sqrt((x - (-2.940219e-04))^2+(y - (4.928332e-05))^2+z^2)^5) + (-3*(x - (-2.892796e-04))*z/sqrt((x - (-2.892796e-04))^2+(y - (5.749720e-05))^2+z^2)^5) + (-3*(x - (-2.845374e-04))*z/sqrt((x - (-2.845374e-04))^2+(y - (6.571109e-05))^2+z^2)^5) + (-3*(x - (-2.797951e-04))*z/sqrt((x - (-2.797951e-04))^2+(y - (7.392497e-05))^2+z^2)^5) + (-3*(x - (-2.750528e-04))*z/sqrt((x - (-2.750528e-04))^2+(y - (8.213886e-05))^2+z^2)^5) + (-3*(x - (-2.703105e-04))*z/sqrt((x - (-2.703105e-04))^2+(y - (9.035275e-05))^2+z^2)^5) + (-3*(x - (-2.655682e-04))*z/sqrt((x - (-2.655682e-04))^2+(y - (9.856663e-05))^2+z^2)^5) + (-3*(x - (-2.608259e-04))*z/sqrt((x - (-2.608259e-04))^2+(y - (1.067805e-04))^2+z^2)^5) + (-3*(x - (-2.560836e-04))*z/sqrt((x - (-2.560836e-04))^2+(y - (1.149944e-04))^2+z^2)^5) + (-3*(x - (-2.513413e-04))*z/sqrt((x - (-2.513413e-04))^2+(y - (1.232083e-04))^2+z^2)^5) + (-3*(x - (-2.465990e-04))*z/sqrt((x - (-2.465990e-04))^2+(y - (1.314222e-04))^2+z^2)^5) + (-3*(x - (-2.418568e-04))*z/sqrt((x - (-2.418568e-04))^2+(y - (1.396361e-04))^2+z^2)^5) + (-3*(x - (-2.371145e-04))*z/sqrt((x - (-2.371145e-04))^2+(y - (1.478499e-04))^2+z^2)^5) + (-3*(x - (-2.323722e-04))*z/sqrt((x - (-2.323722e-04))^2+(y - (1.560638e-04))^2+z^2)^5) + (-3*(x - (-2.276299e-04))*z/sqrt((x - (-2.276299e-04))^2+(y - (1.642777e-04))^2+z^2)^5) + (-3*(x - (-2.228876e-04))*z/sqrt((x - (-2.228876e-04))^2+(y - (1.724916e-04))^2+z^2)^5) + (-3*(x - (-2.181453e-04))*z/sqrt((x - (-2.181453e-04))^2+(y - (1.807055e-04))^2+z^2)^5) + (-3*(x - (-2.134030e-04))*z/sqrt((x - (-2.134030e-04))^2+(y - (1.889194e-04))^2+z^2)^5) + (-3*(x - (-2.086607e-04))*z/sqrt((x - (-2.086607e-04))^2+(y - (1.971333e-04))^2+z^2)^5) + (-3*(x - (-2.039184e-04))*z/sqrt((x - (-2.039184e-04))^2+(y - (2.053472e-04))^2+z^2)^5) + (-3*(x - (-1.991762e-04))*z/sqrt((x - (-1.991762e-04))^2+(y - (2.135610e-04))^2+z^2)^5) + (-3*(x - (-1.944339e-04))*z/sqrt((x - (-1.944339e-04))^2+(y - (2.217749e-04))^2+z^2)^5) + (-3*(x - (-1.896916e-04))*z/sqrt((x - (-1.896916e-04))^2+(y - (2.299888e-04))^2+z^2)^5) + (-3*(x - (-1.849493e-04))*z/sqrt((x - (-1.849493e-04))^2+(y - (2.382027e-04))^2+z^2)^5) + (-3*(x - (-1.802070e-04))*z/sqrt((x - (-1.802070e-04))^2+(y - (2.464166e-04))^2+z^2)^5) + (-3*(x - (-1.754647e-04))*z/sqrt((x - (-1.754647e-04))^2+(y - (2.546305e-04))^2+z^2)^5) + (-3*(x - (-1.707224e-04))*z/sqrt((x - (-1.707224e-04))^2+(y - (2.628444e-04))^2+z^2)^5) + (-3*(x - (-1.659801e-04))*z/sqrt((x - (-1.659801e-04))^2+(y - (2.710582e-04))^2+z^2)^5) + (-3*(x - (-3.177334e-04))*z/sqrt((x - (-3.177334e-04))^2+(y - (-8.213886e-06))^2+z^2)^5) + (-3*(x - (-3.129911e-04))*z/sqrt((x - (-3.129911e-04))^2+(y - (0.000000e+00))^2+z^2)^5) + (-3*(x - (-3.082488e-04))*z/sqrt((x - (-3.082488e-04))^2+(y - (8.213886e-06))^2+z^2)^5) + (-3*(x - (-3.035065e-04))*z/sqrt((x - (-3.035065e-04))^2+(y - (1.642777e-05))^2+z^2)^5) + (-3*(x - (-2.987642e-04))*z/sqrt((x - (-2.987642e-04))^2+(y - (2.464166e-05))^2+z^2)^5) + (-3*(x - (-2.940219e-04))*z/sqrt((x - (-2.940219e-04))^2+(y - (3.285554e-05))^2+z^2)^5) + (-3*(x - (-2.892796e-04))*z/sqrt((x - (-2.892796e-04))^2+(y - (4.106943e-05))^2+z^2)^5) + (-3*(x - (-2.845374e-04))*z/sqrt((x - (-2.845374e-04))^2+(y - (4.928332e-05))^2+z^2)^5) + (-3*(x - (-2.797951e-04))*z/sqrt((x - (-2.797951e-04))^2+(y - (5.749720e-05))^2+z^2)^5) + (-3*(x - (-2.750528e-04))*z/sqrt((x - (-2.750528e-04))^2+(y - (6.571109e-05))^2+z^2)^5) + (-3*(x - (-2.703105e-04))*z/sqrt((x - (-2.703105e-04))^2+(y - (7.392497e-05))^2+z^2)^5) + (-3*(x - (-2.655682e-04))*z/sqrt((x - (-2.655682e-04))^2+(y - (8.213886e-05))^2+z^2)^5) + (-3*(x - (-2.608259e-04))*z/sqrt((x - (-2.608259e-04))^2+(y - (9.035275e-05))^2+z^2)^5) + (-3*(x - (-2.560836e-04))*z/sqrt((x - (-2.560836e-04))^2+(y - (9.856663e-05))^2+z^2)^5) + (-3*(x - (-2.513413e-04))*z/sqrt((x - (-2.513413e-04))^2+(y - (1.067805e-04))^2+z^2)^5) + (-3*(x - (-2.465990e-04))*z/sqrt((x - (-2.465990e-04))^2+(y - (1.149944e-04))^2+z^2)^5) + (-3*(x - (-2.418568e-04))*z/sqrt((x - (-2.418568e-04))^2+(y - (1.232083e-04))^2+z^2)^5) + (-3*(x - (-2.371145e-04))*z/sqrt((x - (-2.371145e-04))^2+(y - (1.314222e-04))^2+z^2)^5) + (-3*(x - (-2.323722e-04))*z/sqrt((x - (-2.323722e-04))^2+(y - (1.396361e-04))^2+z^2)^5) + (-3*(x - (-2.276299e-04))*z/sqrt((x - (-2.276299e-04))^2+(y - (1.478499e-04))^2+z^2)^5) + (-3*(x - (-2.228876e-04))*z/sqrt((x - (-2.228876e-04))^2+(y - (1.560638e-04))^2+z^2)^5) + (-3*(x - (-2.181453e-04))*z/sqrt((x - (-2.181453e-04))^2+(y - (1.642777e-04))^2+z^2)^5) + (-3*(x - (-2.134030e-04))*z/sqrt((x - (-2.134030e-04))^2+(y - (1.724916e-04))^2+z^2)^5) + (-3*(x - (-2.086607e-04))*z/sqrt((x - (-2.086607e-04))^2+(y - (1.807055e-04))^2+z^2)^5) + (-3*(x - (-2.039184e-04))*z/sqrt((x - (-2.039184e-04))^2+(y - (1.889194e-04))^2+z^2)^5) + (-3*(x - (-1.991762e-04))*z/sqrt((x - (-1.991762e-04))^2+(y - (1.971333e-04))^2+z^2)^5) + (-3*(x - (-1.944339e-04))*z/sqrt((x - (-1.944339e-04))^2+(y - (2.053472e-04))^2+z^2)^5) + (-3*(x - (-1.896916e-04))*z/sqrt((x - (-1.896916e-04))^2+(y - (2.135610e-04))^2+z^2)^5) + (-3*(x - (-1.849493e-04))*z/sqrt((x - (-1.849493e-04))^2+(y - (2.217749e-04))^2+z^2)^5) + (-3*(x - (-1.802070e-04))*z/sqrt((x - (-1.802070e-04))^2+(y - (2.299888e-04))^2+z^2)^5) + (-3*(x - (-1.754647e-04))*z/sqrt((x - (-1.754647e-04))^2+(y - (2.382027e-04))^2+z^2)^5) + (-3*(x - (-1.707224e-04))*z/sqrt((x - (-1.707224e-04))^2+(y - (2.464166e-04))^2+z^2)^5) + (-3*(x - (-1.659801e-04))*z/sqrt((x - (-1.659801e-04))^2+(y - (2.546305e-04))^2+z^2)^5) + (-3*(x - (-1.612378e-04))*z/sqrt((x - (-1.612378e-04))^2+(y - (2.628444e-04))^2+z^2)^5) + (-3*(x - (-1.564955e-04))*z/sqrt((x - (-1.564955e-04))^2+(y - (2.710582e-04))^2+z^2)^5) + (-3*(x - (-1.517533e-04))*z/sqrt((x - (-1.517533e-04))^2+(y - (2.792721e-04))^2+z^2)^5) + (-3*(x - (-3.177334e-04))*z/sqrt((x - (-3.177334e-04))^2+(y - (-2.464166e-05))^2+z^2)^5) + (-3*(x - (-3.129911e-04))*z/sqrt((x - (-3.129911e-04))^2+(y - (-1.642777e-05))^2+z^2)^5) + (-3*(x - (-3.082488e-04))*z/sqrt((x - (-3.082488e-04))^2+(y - (-8.213886e-06))^2+z^2)^5) + (-3*(x - (-3.035065e-04))*z/sqrt((x - (-3.035065e-04))^2+(y - (0.000000e+00))^2+z^2)^5) + (-3*(x - (-2.987642e-04))*z/sqrt((x - (-2.987642e-04))^2+(y - (8.213886e-06))^2+z^2)^5) + (-3*(x - (-2.940219e-04))*z/sqrt((x - (-2.940219e-04))^2+(y - (1.642777e-05))^2+z^2)^5) + (-3*(x - (-2.892796e-04))*z/sqrt((x - (-2.892796e-04))^2+(y - (2.464166e-05))^2+z^2)^5) + (-3*(x - (-2.845374e-04))*z/sqrt((x - (-2.845374e-04))^2+(y - (3.285554e-05))^2+z^2)^5) + (-3*(x - (-2.797951e-04))*z/sqrt((x - (-2.797951e-04))^2+(y - (4.106943e-05))^2+z^2)^5) + (-3*(x - (-2.750528e-04))*z/sqrt((x - (-2.750528e-04))^2+(y - (4.928332e-05))^2+z^2)^5) + (-3*(x - (-2.703105e-04))*z/sqrt((x - (-2.703105e-04))^2+(y - (5.749720e-05))^2+z^2)^5) + (-3*(x - (-2.655682e-04))*z/sqrt((x - (-2.655682e-04))^2+(y - (6.571109e-05))^2+z^2)^5) + (-3*(x - (-2.608259e-04))*z/sqrt((x - (-2.608259e-04))^2+(y - (7.392497e-05))^2+z^2)^5) + (-3*(x - (-2.560836e-04))*z/sqrt((x - (-2.560836e-04))^2+(y - (8.213886e-05))^2+z^2)^5) + (-3*(x - (-2.513413e-04))*z/sqrt((x - (-2.513413e-04))^2+(y - (9.035275e-05))^2+z^2)^5) + (-3*(x - (-2.465990e-04))*z/sqrt((x - (-2.465990e-04))^2+(y - (9.856663e-05))^2+z^2)^5) + (-3*(x - (-2.418568e-04))*z/sqrt((x - (-2.418568e-04))^2+(y - (1.067805e-04))^2+z^2)^5) + (-3*(x - (-2.371145e-04))*z/sqrt((x - (-2.371145e-04))^2+(y - (1.149944e-04))^2+z^2)^5) + (-3*(x - (-2.323722e-04))*z/sqrt((x - (-2.323722e-04))^2+(y - (1.232083e-04))^2+z^2)^5) + (-3*(x - (-2.276299e-04))*z/sqrt((x - (-2.276299e-04))^2+(y - (1.314222e-04))^2+z^2)^5) + (-3*(x - (-2.228876e-04))*z/sqrt((x - (-2.228876e-04))^2+(y - (1.396361e-04))^2+z^2)^5) + (-3*(x - (-2.181453e-04))*z/sqrt((x - (-2.181453e-04))^2+(y - (1.478499e-04))^2+z^2)^5) + (-3*(x - (-2.134030e-04))*z/sqrt((x - (-2.134030e-04))^2+(y - (1.560638e-04))^2+z^2)^5) + (-3*(x - (-2.086607e-04))*z/sqrt((x - (-2.086607e-04))^2+(y - (1.642777e-04))^2+z^2)^5) + (-3*(x - (-2.039184e-04))*z/sqrt((x - (-2.039184e-04))^2+(y - (1.724916e-04))^2+z^2)^5) + (-3*(x - (-1.991762e-04))*z/sqrt((x - (-1.991762e-04))^2+(y - (1.807055e-04))^2+z^2)^5) + (-3*(x - (-1.944339e-04))*z/sqrt((x - (-1.944339e-04))^2+(y - (1.889194e-04))^2+z^2)^5) + (-3*(x - (-1.896916e-04))*z/sqrt((x - (-1.896916e-04))^2+(y - (1.971333e-04))^2+z^2)^5) + (-3*(x - (-1.849493e-04))*z/sqrt((x - (-1.849493e-04))^2+(y - (2.053472e-04))^2+z^2)^5) + (-3*(x - (-1.802070e-04))*z/sqrt((x - (-1.802070e-04))^2+(y - (2.135610e-04))^2+z^2)^5) + (-3*(x - (-1.754647e-04))*z/sqrt((x - (-1.754647e-04))^2+(y - (2.217749e-04))^2+z^2)^5) + (-3*(x - (-1.707224e-04))*z/sqrt((x - (-1.707224e-04))^2+(y - (2.299888e-04))^2+z^2)^5) + (-3*(x - (-1.659801e-04))*z/sqrt((x - (-1.659801e-04))^2+(y - (2.382027e-04))^2+z^2)^5) + (-3*(x - (-1.612378e-04))*z/sqrt((x - (-1.612378e-04))^2+(y - (2.464166e-04))^2+z^2)^5) + (-3*(x - (-1.564955e-04))*z/sqrt((x - (-1.564955e-04))^2+(y - (2.546305e-04))^2+z^2)^5) + (-3*(x - (-1.517533e-04))*z/sqrt((x - (-1.517533e-04))^2+(y - (2.628444e-04))^2+z^2)^5) + (-3*(x - (-1.470110e-04))*z/sqrt((x - (-1.470110e-04))^2+(y - (2.710582e-04))^2+z^2)^5) + (-3*(x - (-1.422687e-04))*z/sqrt((x - (-1.422687e-04))^2+(y - (2.792721e-04))^2+z^2)^5) + (-3*(x - (-1.375264e-04))*z/sqrt((x - (-1.375264e-04))^2+(y - (2.874860e-04))^2+z^2)^5) + (-3*(x - (-3.129911e-04))*z/sqrt((x - (-3.129911e-04))^2+(y - (-3.285554e-05))^2+z^2)^5) + (-3*(x - (-3.082488e-04))*z/sqrt((x - (-3.082488e-04))^2+(y - (-2.464166e-05))^2+z^2)^5) + (-3*(x - (-3.035065e-04))*z/sqrt((x - (-3.035065e-04))^2+(y - (-1.642777e-05))^2+z^2)^5) + (-3*(x - (-2.987642e-04))*z/sqrt((x - (-2.987642e-04))^2+(y - (-8.213886e-06))^2+z^2)^5) + (-3*(x - (-2.940219e-04))*z/sqrt((x - (-2.940219e-04))^2+(y - (0.000000e+00))^2+z^2)^5) + (-3*(x - (-2.892796e-04))*z/sqrt((x - (-2.892796e-04))^2+(y - (8.213886e-06))^2+z^2)^5) + (-3*(x - (-2.845374e-04))*z/sqrt((x - (-2.845374e-04))^2+(y - (1.642777e-05))^2+z^2)^5) + (-3*(x - (-2.797951e-04))*z/sqrt((x - (-2.797951e-04))^2+(y - (2.464166e-05))^2+z^2)^5) + (-3*(x - (-2.750528e-04))*z/sqrt((x - (-2.750528e-04))^2+(y - (3.285554e-05))^2+z^2)^5) + (-3*(x - (-2.703105e-04))*z/sqrt((x - (-2.703105e-04))^2+(y - (4.106943e-05))^2+z^2)^5) + (-3*(x - (-2.655682e-04))*z/sqrt((x - (-2.655682e-04))^2+(y - (4.928332e-05))^2+z^2)^5) + (-3*(x - (-2.608259e-04))*z/sqrt((x - (-2.608259e-04))^2+(y - (5.749720e-05))^2+z^2)^5) + (-3*(x - (-2.560836e-04))*z/sqrt((x - (-2.560836e-04))^2+(y - (6.571109e-05))^2+z^2)^5) + (-3*(x - (-2.513413e-04))*z/sqrt((x - (-2.513413e-04))^2+(y - (7.392497e-05))^2+z^2)^5) + (-3*(x - (-2.465990e-04))*z/sqrt((x - (-2.465990e-04))^2+(y - (8.213886e-05))^2+z^2)^5) + (-3*(x - (-2.418568e-04))*z/sqrt((x - (-2.418568e-04))^2+(y - (9.035275e-05))^2+z^2)^5) + (-3*(x - (-2.371145e-04))*z/sqrt((x - (-2.371145e-04))^2+(y - (9.856663e-05))^2+z^2)^5) + (-3*(x - (-2.323722e-04))*z/sqrt((x - (-2.323722e-04))^2+(y - (1.067805e-04))^2+z^2)^5) + (-3*(x - (-2.276299e-04))*z/sqrt((x - (-2.276299e-04))^2+(y - (1.149944e-04))^2+z^2)^5) + (-3*(x - (-2.228876e-04))*z/sqrt((x - (-2.228876e-04))^2+(y - (1.232083e-04))^2+z^2)^5) + (-3*(x - (-2.181453e-04))*z/sqrt((x - (-2.181453e-04))^2+(y - (1.314222e-04))^2+z^2)^5) + (-3*(x - (-2.134030e-04))*z/sqrt((x - (-2.134030e-04))^2+(y - (1.396361e-04))^2+z^2)^5) + (-3*(x - (-2.086607e-04))*z/sqrt((x - (-2.086607e-04))^2+(y - (1.478499e-04))^2+z^2)^5) + (-3*(x - (-2.039184e-04))*z/sqrt((x - (-2.039184e-04))^2+(y - (1.560638e-04))^2+z^2)^5) + (-3*(x - (-1.991762e-04))*z/sqrt((x - (-1.991762e-04))^2+(y - (1.642777e-04))^2+z^2)^5) + (-3*(x - (-1.944339e-04))*z/sqrt((x - (-1.944339e-04))^2+(y - (1.724916e-04))^2+z^2)^5) + (-3*(x - (-1.896916e-04))*z/sqrt((x - (-1.896916e-04))^2+(y - (1.807055e-04))^2+z^2)^5) + (-3*(x - (-1.849493e-04))*z/sqrt((x - (-1.849493e-04))^2+(y - (1.889194e-04))^2+z^2)^5) + (-3*(x - (-1.802070e-04))*z/sqrt((x - (-1.802070e-04))^2+(y - (1.971333e-04))^2+z^2)^5) + (-3*(x - (-1.754647e-04))*z/sqrt((x - (-1.754647e-04))^2+(y - (2.053472e-04))^2+z^2)^5) + (-3*(x - (-1.707224e-04))*z/sqrt((x - (-1.707224e-04))^2+(y - (2.135610e-04))^2+z^2)^5) + (-3*(x - (-1.659801e-04))*z/sqrt((x - (-1.659801e-04))^2+(y - (2.217749e-04))^2+z^2)^5) + (-3*(x - (-1.612378e-04))*z/sqrt((x - (-1.612378e-04))^2+(y - (2.299888e-04))^2+z^2)^5) + (-3*(x - (-1.564955e-04))*z/sqrt((x - (-1.564955e-04))^2+(y - (2.382027e-04))^2+z^2)^5) + (-3*(x - (-1.517533e-04))*z/sqrt((x - (-1.517533e-04))^2+(y - (2.464166e-04))^2+z^2)^5) + (-3*(x - (-1.470110e-04))*z/sqrt((x - (-1.470110e-04))^2+(y - (2.546305e-04))^2+z^2)^5) + (-3*(x - (-1.422687e-04))*z/sqrt((x - (-1.422687e-04))^2+(y - (2.628444e-04))^2+z^2)^5) + (-3*(x - (-1.375264e-04))*z/sqrt((x - (-1.375264e-04))^2+(y - (2.710582e-04))^2+z^2)^5) + (-3*(x - (-1.327841e-04))*z/sqrt((x - (-1.327841e-04))^2+(y - (2.792721e-04))^2+z^2)^5) + (-3*(x - (-1.280418e-04))*z/sqrt((x - (-1.280418e-04))^2+(y - (2.874860e-04))^2+z^2)^5) + (-3*(x - (-3.129911e-04))*z/sqrt((x - (-3.129911e-04))^2+(y - (-4.928332e-05))^2+z^2)^5) + (-3*(x - (-3.082488e-04))*z/sqrt((x - (-3.082488e-04))^2+(y - (-4.106943e-05))^2+z^2)^5) + (-3*(x - (-3.035065e-04))*z/sqrt((x - (-3.035065e-04))^2+(y - (-3.285554e-05))^2+z^2)^5) + (-3*(x - (-2.987642e-04))*z/sqrt((x - (-2.987642e-04))^2+(y - (-2.464166e-05))^2+z^2)^5) + (-3*(x - (-2.940219e-04))*z/sqrt((x - (-2.940219e-04))^2+(y - (-1.642777e-05))^2+z^2)^5) + (-3*(x - (-2.892796e-04))*z/sqrt((x - (-2.892796e-04))^2+(y - (-8.213886e-06))^2+z^2)^5) + (-3*(x - (-2.845374e-04))*z/sqrt((x - (-2.845374e-04))^2+(y - (0.000000e+00))^2+z^2)^5) + (-3*(x - (-2.797951e-04))*z/sqrt((x - (-2.797951e-04))^2+(y - (8.213886e-06))^2+z^2)^5) + (-3*(x - (-2.750528e-04))*z/sqrt((x - (-2.750528e-04))^2+(y - (1.642777e-05))^2+z^2)^5) + (-3*(x - (-2.703105e-04))*z/sqrt((x - (-2.703105e-04))^2+(y - (2.464166e-05))^2+z^2)^5) + (-3*(x - (-2.655682e-04))*z/sqrt((x - (-2.655682e-04))^2+(y - (3.285554e-05))^2+z^2)^5) + (-3*(x - (-2.608259e-04))*z/sqrt((x - (-2.608259e-04))^2+(y - (4.106943e-05))^2+z^2)^5) + (-3*(x - (-2.560836e-04))*z/sqrt((x - (-2.560836e-04))^2+(y - (4.928332e-05))^2+z^2)^5) + (-3*(x - (-2.513413e-04))*z/sqrt((x - (-2.513413e-04))^2+(y - (5.749720e-05))^2+z^2)^5) + (-3*(x - (-2.465990e-04))*z/sqrt((x - (-2.465990e-04))^2+(y - (6.571109e-05))^2+z^2)^5) + (-3*(x - (-2.418568e-04))*z/sqrt((x - (-2.418568e-04))^2+(y - (7.392497e-05))^2+z^2)^5) + (-3*(x - (-2.371145e-04))*z/sqrt((x - (-2.371145e-04))^2+(y - (8.213886e-05))^2+z^2)^5) + (-3*(x - (-2.323722e-04))*z/sqrt((x - (-2.323722e-04))^2+(y - (9.035275e-05))^2+z^2)^5) + (-3*(x - (-2.276299e-04))*z/sqrt((x - (-2.276299e-04))^2+(y - (9.856663e-05))^2+z^2)^5) + (-3*(x - (-2.228876e-04))*z/sqrt((x - (-2.228876e-04))^2+(y - (1.067805e-04))^2+z^2)^5) + (-3*(x - (-2.181453e-04))*z/sqrt((x - (-2.181453e-04))^2+(y - (1.149944e-04))^2+z^2)^5) + (-3*(x - (-2.134030e-04))*z/sqrt((x - (-2.134030e-04))^2+(y - (1.232083e-04))^2+z^2)^5) + (-3*(x - (-2.086607e-04))*z/sqrt((x - (-2.086607e-04))^2+(y - (1.314222e-04))^2+z^2)^5) + (-3*(x - (-2.039184e-04))*z/sqrt((x - (-2.039184e-04))^2+(y - (1.396361e-04))^2+z^2)^5) + (-3*(x - (-1.991762e-04))*z/sqrt((x - (-1.991762e-04))^2+(y - (1.478499e-04))^2+z^2)^5) + (-3*(x - (-1.944339e-04))*z/sqrt((x - (-1.944339e-04))^2+(y - (1.560638e-04))^2+z^2)^5) + (-3*(x - (-1.896916e-04))*z/sqrt((x - (-1.896916e-04))^2+(y - (1.642777e-04))^2+z^2)^5) + (-3*(x - (-1.849493e-04))*z/sqrt((x - (-1.849493e-04))^2+(y - (1.724916e-04))^2+z^2)^5) + (-3*(x - (-1.802070e-04))*z/sqrt((x - (-1.802070e-04))^2+(y - (1.807055e-04))^2+z^2)^5) + (-3*(x - (-1.754647e-04))*z/sqrt((x - (-1.754647e-04))^2+(y - (1.889194e-04))^2+z^2)^5) + (-3*(x - (-1.707224e-04))*z/sqrt((x - (-1.707224e-04))^2+(y - (1.971333e-04))^2+z^2)^5) + (-3*(x - (-1.659801e-04))*z/sqrt((x - (-1.659801e-04))^2+(y - (2.053472e-04))^2+z^2)^5) + (-3*(x - (-1.612378e-04))*z/sqrt((x - (-1.612378e-04))^2+(y - (2.135610e-04))^2+z^2)^5) + (-3*(x - (-1.564955e-04))*z/sqrt((x - (-1.564955e-04))^2+(y - (2.217749e-04))^2+z^2)^5) + (-3*(x - (-1.517533e-04))*z/sqrt((x - (-1.517533e-04))^2+(y - (2.299888e-04))^2+z^2)^5) + (-3*(x - (-1.470110e-04))*z/sqrt((x - (-1.470110e-04))^2+(y - (2.382027e-04))^2+z^2)^5) + (-3*(x - (-1.422687e-04))*z/sqrt((x - (-1.422687e-04))^2+(y - (2.464166e-04))^2+z^2)^5) + (-3*(x - (-1.375264e-04))*z/sqrt((x - (-1.375264e-04))^2+(y - (2.546305e-04))^2+z^2)^5) + (-3*(x - (-1.327841e-04))*z/sqrt((x - (-1.327841e-04))^2+(y - (2.628444e-04))^2+z^2)^5) + (-3*(x - (-1.280418e-04))*z/sqrt((x - (-1.280418e-04))^2+(y - (2.710582e-04))^2+z^2)^5) + (-3*(x - (-1.232995e-04))*z/sqrt((x - (-1.232995e-04))^2+(y - (2.792721e-04))^2+z^2)^5) + (-3*(x - (-1.185572e-04))*z/sqrt((x - (-1.185572e-04))^2+(y - (2.874860e-04))^2+z^2)^5) + (-3*(x - (-1.138149e-04))*z/sqrt((x - (-1.138149e-04))^2+(y - (2.956999e-04))^2+z^2)^5) + (-3*(x - (-3.082488e-04))*z/sqrt((x - (-3.082488e-04))^2+(y - (-5.749720e-05))^2+z^2)^5) + (-3*(x - (-3.035065e-04))*z/sqrt((x - (-3.035065e-04))^2+(y - (-4.928332e-05))^2+z^2)^5) + (-3*(x - (-2.987642e-04))*z/sqrt((x - (-2.987642e-04))^2+(y - (-4.106943e-05))^2+z^2)^5) + (-3*(x - (-2.940219e-04))*z/sqrt((x - (-2.940219e-04))^2+(y - (-3.285554e-05))^2+z^2)^5) + (-3*(x - (-2.892796e-04))*z/sqrt((x - (-2.892796e-04))^2+(y - (-2.464166e-05))^2+z^2)^5) + (-3*(x - (-2.845374e-04))*z/sqrt((x - (-2.845374e-04))^2+(y - (-1.642777e-05))^2+z^2)^5) + (-3*(x - (-2.797951e-04))*z/sqrt((x - (-2.797951e-04))^2+(y - (-8.213886e-06))^2+z^2)^5) + (-3*(x - (-2.750528e-04))*z/sqrt((x - (-2.750528e-04))^2+(y - (0.000000e+00))^2+z^2)^5) + (-3*(x - (-2.703105e-04))*z/sqrt((x - (-2.703105e-04))^2+(y - (8.213886e-06))^2+z^2)^5) + (-3*(x - (-2.655682e-04))*z/sqrt((x - (-2.655682e-04))^2+(y - (1.642777e-05))^2+z^2)^5) + (-3*(x - (-2.608259e-04))*z/sqrt((x - (-2.608259e-04))^2+(y - (2.464166e-05))^2+z^2)^5) + (-3*(x - (-2.560836e-04))*z/sqrt((x - (-2.560836e-04))^2+(y - (3.285554e-05))^2+z^2)^5) + (-3*(x - (-2.513413e-04))*z/sqrt((x - (-2.513413e-04))^2+(y - (4.106943e-05))^2+z^2)^5) + (-3*(x - (-2.465990e-04))*z/sqrt((x - (-2.465990e-04))^2+(y - (4.928332e-05))^2+z^2)^5) + (-3*(x - (-2.418568e-04))*z/sqrt((x - (-2.418568e-04))^2+(y - (5.749720e-05))^2+z^2)^5) + (-3*(x - (-2.371145e-04))*z/sqrt((x - (-2.371145e-04))^2+(y - (6.571109e-05))^2+z^2)^5) + (-3*(x - (-2.323722e-04))*z/sqrt((x - (-2.323722e-04))^2+(y - (7.392497e-05))^2+z^2)^5) + (-3*(x - (-2.276299e-04))*z/sqrt((x - (-2.276299e-04))^2+(y - (8.213886e-05))^2+z^2)^5) + (-3*(x - (-2.228876e-04))*z/sqrt((x - (-2.228876e-04))^2+(y - (9.035275e-05))^2+z^2)^5) + (-3*(x - (-2.181453e-04))*z/sqrt((x - (-2.181453e-04))^2+(y - (9.856663e-05))^2+z^2)^5) + (-3*(x - (-2.134030e-04))*z/sqrt((x - (-2.134030e-04))^2+(y - (1.067805e-04))^2+z^2)^5) + (-3*(x - (-2.086607e-04))*z/sqrt((x - (-2.086607e-04))^2+(y - (1.149944e-04))^2+z^2)^5) + (-3*(x - (-2.039184e-04))*z/sqrt((x - (-2.039184e-04))^2+(y - (1.232083e-04))^2+z^2)^5) + (-3*(x - (-1.991762e-04))*z/sqrt((x - (-1.991762e-04))^2+(y - (1.314222e-04))^2+z^2)^5) + (-3*(x - (-1.944339e-04))*z/sqrt((x - (-1.944339e-04))^2+(y - (1.396361e-04))^2+z^2)^5) + (-3*(x - (-1.896916e-04))*z/sqrt((x - (-1.896916e-04))^2+(y - (1.478499e-04))^2+z^2)^5) + (-3*(x - (-1.849493e-04))*z/sqrt((x - (-1.849493e-04))^2+(y - (1.560638e-04))^2+z^2)^5) + (-3*(x - (-1.802070e-04))*z/sqrt((x - (-1.802070e-04))^2+(y - (1.642777e-04))^2+z^2)^5) + (-3*(x - (-1.754647e-04))*z/sqrt((x - (-1.754647e-04))^2+(y - (1.724916e-04))^2+z^2)^5) + (-3*(x - (-1.707224e-04))*z/sqrt((x - (-1.707224e-04))^2+(y - (1.807055e-04))^2+z^2)^5) + (-3*(x - (-1.659801e-04))*z/sqrt((x - (-1.659801e-04))^2+(y - (1.889194e-04))^2+z^2)^5) + (-3*(x - (-1.612378e-04))*z/sqrt((x - (-1.612378e-04))^2+(y - (1.971333e-04))^2+z^2)^5) + (-3*(x - (-1.564955e-04))*z/sqrt((x - (-1.564955e-04))^2+(y - (2.053472e-04))^2+z^2)^5) + (-3*(x - (-1.517533e-04))*z/sqrt((x - (-1.517533e-04))^2+(y - (2.135610e-04))^2+z^2)^5) + (-3*(x - (-1.470110e-04))*z/sqrt((x - (-1.470110e-04))^2+(y - (2.217749e-04))^2+z^2)^5) + (-3*(x - (-1.422687e-04))*z/sqrt((x - (-1.422687e-04))^2+(y - (2.299888e-04))^2+z^2)^5) + (-3*(x - (-1.375264e-04))*z/sqrt((