##################################################################
# LAMMPS input file generated using pylion 0.5.0
# simulation name: fivewiresimulation
#
# pylion is written and maintained by Dimitris Trypogeorgos
# and Elliot Bentine. Download it from
# https://bitbucket.org/dtrypogeorgos/pylion
#
# If you find it useful please cite <paper>.
##################################################################


units si
atom_style charge

# Creating simulation box...
boundary m m m
region simulationDomain block -0.001  0.001 -0.001 0.001 -0.001 0.001 units box
create_box 1 simulationDomain

# Configure neighbour list...
neighbor 1 nsq
neigh_modify once yes

# Configure pairwise interactions for long range Coulombics only...
pair_style coul/cut 10
pair_coeff * *

# Placing individual ions...
create_atoms 1 single 2.1377885535904433e-06 9.74279055117381e-05 0.00011236921263978841 units box
create_atoms 1 single 6.859983351293737e-06 9.838267856850302e-05 0.00011725511057589656 units box
create_atoms 1 single -8.173947245189721e-07 9.800375944448045e-05 0.00011590299604117794 units box
create_atoms 1 single -6.007101517312871e-06 0.00010012293280777236 0.00010777378959815653 units box
create_atoms 1 single -2.10824010442143e-06 0.00010061898658252274 0.0001138787566044625 units box

# Species...
mass 1 6.642156e-26
set type 1 charge 1.6021764599999998e-19
group 1 type 1

timestep 3.084398121935956e-10

# Configuring additional output to flush buffer during simulation...
thermo 10000
thermo_style custom step cpu
thermo_modify flush yes

# Time integration...
group nonRigidBody union all
fix timeIntegrator nonRigidBody nve


# Creating a Surface Electrode Trap... (fixID=153826667934032)
variable phase153826667934032		equal "1.621062e+08*step*dt"
variable ro153826667934032000 atom "sqrt((x - (-3.000000e-03))^2+(y - (2.400000e-04))^2+(z + (0.000000e+00))^2)"

variable rt153826667934032000 atom "sqrt((x - (-3.000000e-03))^2+(y - (1.400000e-04))^2+(z + (0.000000e+00))^2)"

variable n153826667934032000 atom "2.230000e+02*(v_ro153826667934032000+v_rt153826667934032000)/(v_ro153826667934032000*v_rt153826667934032000*((v_ro153826667934032000+v_rt153826667934032000)*(v_ro153826667934032000+v_rt153826667934032000)-(1.000000e-08))*3.141593e+00)"

variable ro153826667934032010 atom "sqrt((x - (-3.000000e-03))^2+(y - (1.400000e-04))^2+(z + (0.000000e+00))^2)"

variable rt153826667934032010 atom "sqrt((x - (3.000000e-03))^2+(y - (1.400000e-04))^2+(z + (0.000000e+00))^2)"

variable n153826667934032010 atom "2.230000e+02*(v_ro153826667934032010+v_rt153826667934032010)/(v_ro153826667934032010*v_rt153826667934032010*((v_ro153826667934032010+v_rt153826667934032010)*(v_ro153826667934032010+v_rt153826667934032010)-(3.600000e-05))*3.141593e+00)"

variable ro153826667934032020 atom "sqrt((x - (3.000000e-03))^2+(y - (1.400000e-04))^2+(z + (0.000000e+00))^2)"

variable rt153826667934032020 atom "sqrt((x - (3.000000e-03))^2+(y - (2.400000e-04))^2+(z + (0.000000e+00))^2)"

variable n153826667934032020 atom "2.230000e+02*(v_ro153826667934032020+v_rt153826667934032020)/(v_ro153826667934032020*v_rt153826667934032020*((v_ro153826667934032020+v_rt153826667934032020)*(v_ro153826667934032020+v_rt153826667934032020)-(1.000000e-08))*3.141593e+00)"

variable ro153826667934032030 atom "sqrt((x - (3.000000e-03))^2+(y - (2.400000e-04))^2+(z + (0.000000e+00))^2)"

variable rt153826667934032030 atom "sqrt((x - (-3.000000e-03))^2+(y - (2.400000e-04))^2+(z + (0.000000e+00))^2)"

variable n153826667934032030 atom "2.230000e+02*(v_ro153826667934032030+v_rt153826667934032030)/(v_ro153826667934032030*v_rt153826667934032030*((v_ro153826667934032030+v_rt153826667934032030)*(v_ro153826667934032030+v_rt153826667934032030)-(3.600000e-05))*3.141593e+00)"

variable ro153826667934032100 atom "sqrt((x - (-3.000000e-03))^2+(y - (1.400000e-04))^2+(z + (0.000000e+00))^2)"

variable rt153826667934032100 atom "sqrt((x - (-3.000000e-03))^2+(y - (-2.400000e-04))^2+(z + (0.000000e+00))^2)"

variable n153826667934032100 atom "2.230000e+02*(v_ro153826667934032100+v_rt153826667934032100)/(v_ro153826667934032100*v_rt153826667934032100*((v_ro153826667934032100+v_rt153826667934032100)*(v_ro153826667934032100+v_rt153826667934032100)-(1.444000e-07))*3.141593e+00)"

variable ro153826667934032110 atom "sqrt((x - (-3.000000e-03))^2+(y - (-2.400000e-04))^2+(z + (0.000000e+00))^2)"

variable rt153826667934032110 atom "sqrt((x - (3.000000e-03))^2+(y - (-2.400000e-04))^2+(z + (0.000000e+00))^2)"

variable n153826667934032110 atom "2.230000e+02*(v_ro153826667934032110+v_rt153826667934032110)/(v_ro153826667934032110*v_rt153826667934032110*((v_ro153826667934032110+v_rt153826667934032110)*(v_ro153826667934032110+v_rt153826667934032110)-(3.600000e-05))*3.141593e+00)"

variable ro153826667934032120 atom "sqrt((x - (3.000000e-03))^2+(y - (-2.400000e-04))^2+(z + (0.000000e+00))^2)"

variable rt153826667934032120 atom "sqrt((x - (3.000000e-03))^2+(y - (1.400000e-04))^2+(z + (0.000000e+00))^2)"

variable n153826667934032120 atom "2.230000e+02*(v_ro153826667934032120+v_rt153826667934032120)/(v_ro153826667934032120*v_rt153826667934032120*((v_ro153826667934032120+v_rt153826667934032120)*(v_ro153826667934032120+v_rt153826667934032120)-(1.444000e-07))*3.141593e+00)"

variable ro153826667934032130 atom "sqrt((x - (3.000000e-03))^2+(y - (1.400000e-04))^2+(z + (0.000000e+00))^2)"

variable rt153826667934032130 atom "sqrt((x - (3.000000e-03))^2+(y - (1.400000e-04))^2+(z + (0.000000e+00))^2)"

variable n153826667934032130 atom "2.230000e+02*(v_ro153826667934032130+v_rt153826667934032130)/(v_ro153826667934032130*v_rt153826667934032130*((v_ro153826667934032130+v_rt153826667934032130)*(v_ro153826667934032130+v_rt153826667934032130)-(0.000000e+00))*3.141593e+00)"

variable ro153826667934032140 atom "sqrt((x - (3.000000e-03))^2+(y - (1.400000e-04))^2+(z + (0.000000e+00))^2)"

variable rt153826667934032140 atom "sqrt((x - (3.000000e-03))^2+(y - (0.000000e+00))^2+(z + (0.000000e+00))^2)"

variable n153826667934032140 atom "2.230000e+02*(v_ro153826667934032140+v_rt153826667934032140)/(v_ro153826667934032140*v_rt153826667934032140*((v_ro153826667934032140+v_rt153826667934032140)*(v_ro153826667934032140+v_rt153826667934032140)-(1.960000e-08))*3.141593e+00)"

variable ro153826667934032150 atom "sqrt((x - (3.000000e-03))^2+(y - (0.000000e+00))^2+(z + (0.000000e+00))^2)"

variable rt153826667934032150 atom "sqrt((x - (-3.000000e-03))^2+(y - (0.000000e+00))^2+(z + (0.000000e+00))^2)"

variable n153826667934032150 atom "2.230000e+02*(v_ro153826667934032150+v_rt153826667934032150)/(v_ro153826667934032150*v_rt153826667934032150*((v_ro153826667934032150+v_rt153826667934032150)*(v_ro153826667934032150+v_rt153826667934032150)-(3.600000e-05))*3.141593e+00)"

variable ro153826667934032160 atom "sqrt((x - (-3.000000e-03))^2+(y - (0.000000e+00))^2+(z + (0.000000e+00))^2)"

variable rt153826667934032160 atom "sqrt((x - (-3.000000e-03))^2+(y - (1.400000e-04))^2+(z + (0.000000e+00))^2)"

variable n153826667934032160 atom "2.230000e+02*(v_ro153826667934032160+v_rt153826667934032160)/(v_ro153826667934032160*v_rt153826667934032160*((v_ro153826667934032160+v_rt153826667934032160)*(v_ro153826667934032160+v_rt153826667934032160)-(1.960000e-08))*3.141593e+00)"

variable ro153826667934032170 atom "sqrt((x - (-3.000000e-03))^2+(y - (1.400000e-04))^2+(z + (0.000000e+00))^2)"

variable rt153826667934032170 atom "sqrt((x - (-3.000000e-03))^2+(y - (1.400000e-04))^2+(z + (0.000000e+00))^2)"

variable n153826667934032170 atom "2.230000e+02*(v_ro153826667934032170+v_rt153826667934032170)/(v_ro153826667934032170*v_rt153826667934032170*((v_ro153826667934032170+v_rt153826667934032170)*(v_ro153826667934032170+v_rt153826667934032170)-(0.000000e+00))*3.141593e+00)"

variable rodc153826667934032000 atom "sqrt((x - (-8.000000e-04))^2+(y - (1.000000e-03))^2+(z + (0.000000e+00))^2)"

variable rtdc153826667934032000 atom "sqrt((x - (-8.000000e-04))^2+(y - (2.400000e-04))^2+(z + (0.000000e+00))^2)"

variable ndc153826667934032000 atom "-7.804913e+00*(v_rodc153826667934032000+v_rtdc153826667934032000)/(v_rodc153826667934032000*v_rtdc153826667934032000*((v_rodc153826667934032000+v_rtdc153826667934032000)*(v_rodc153826667934032000+v_rtdc153826667934032000)-(5.776000e-07))*3.141593e+00)"

variable rodc153826667934032010 atom "sqrt((x - (-8.000000e-04))^2+(y - (2.400000e-04))^2+(z + (0.000000e+00))^2)"

variable rtdc153826667934032010 atom "sqrt((x - (-2.000000e-04))^2+(y - (2.400000e-04))^2+(z + (0.000000e+00))^2)"

variable ndc153826667934032010 atom "-7.804913e+00*(v_rodc153826667934032010+v_rtdc153826667934032010)/(v_rodc153826667934032010*v_rtdc153826667934032010*((v_rodc153826667934032010+v_rtdc153826667934032010)*(v_rodc153826667934032010+v_rtdc153826667934032010)-(3.600000e-07))*3.141593e+00)"

variable rodc153826667934032020 atom "sqrt((x - (-2.000000e-04))^2+(y - (2.400000e-04))^2+(z + (0.000000e+00))^2)"

variable rtdc153826667934032020 atom "sqrt((x - (-2.000000e-04))^2+(y - (1.000000e-03))^2+(z + (0.000000e+00))^2)"

variable ndc153826667934032020 atom "-7.804913e+00*(v_rodc153826667934032020+v_rtdc153826667934032020)/(v_rodc153826667934032020*v_rtdc153826667934032020*((v_rodc153826667934032020+v_rtdc153826667934032020)*(v_rodc153826667934032020+v_rtdc153826667934032020)-(5.776000e-07))*3.141593e+00)"

variable rodc153826667934032030 atom "sqrt((x - (-2.000000e-04))^2+(y - (1.000000e-03))^2+(z + (0.000000e+00))^2)"

variable rtdc153826667934032030 atom "sqrt((x - (-8.000000e-04))^2+(y - (1.000000e-03))^2+(z + (0.000000e+00))^2)"

variable ndc153826667934032030 atom "-7.804913e+00*(v_rodc153826667934032030+v_rtdc153826667934032030)/(v_rodc153826667934032030*v_rtdc153826667934032030*((v_rodc153826667934032030+v_rtdc153826667934032030)*(v_rodc153826667934032030+v_rtdc153826667934032030)-(3.600000e-07))*3.141593e+00)"

variable rodc153826667934032100 atom "sqrt((x - (-2.000000e-04))^2+(y - (1.000000e-03))^2+(z + (0.000000e+00))^2)"

variable rtdc153826667934032100 atom "sqrt((x - (-2.000000e-04))^2+(y - (2.400000e-04))^2+(z + (0.000000e+00))^2)"

variable ndc153826667934032100 atom "5.623874e+00*(v_rodc153826667934032100+v_rtdc153826667934032100)/(v_rodc153826667934032100*v_rtdc153826667934032100*((v_rodc153826667934032100+v_rtdc153826667934032100)*(v_rodc153826667934032100+v_rtdc153826667934032100)-(5.776000e-07))*3.141593e+00)"

variable rodc153826667934032110 atom "sqrt((x - (-2.000000e-04))^2+(y - (2.400000e-04))^2+(z + (0.000000e+00))^2)"

variable rtdc153826667934032110 atom "sqrt((x - (2.000000e-04))^2+(y - (2.400000e-04))^2+(z + (0.000000e+00))^2)"

variable ndc153826667934032110 atom "5.623874e+00*(v_rodc153826667934032110+v_rtdc153826667934032110)/(v_rodc153826667934032110*v_rtdc153826667934032110*((v_rodc153826667934032110+v_rtdc153826667934032110)*(v_rodc153826667934032110+v_rtdc153826667934032110)-(1.600000e-07))*3.141593e+00)"

variable rodc153826667934032120 atom "sqrt((x - (2.000000e-04))^2+(y - (2.400000e-04))^2+(z + (0.000000e+00))^2)"

variable rtdc153826667934032120 atom "sqrt((x - (2.000000e-04))^2+(y - (1.000000e-03))^2+(z + (0.000000e+00))^2)"

variable ndc153826667934032120 atom "5.623874e+00*(v_rodc153826667934032120+v_rtdc153826667934032120)/(v_rodc153826667934032120*v_rtdc153826667934032120*((v_rodc153826667934032120+v_rtdc153826667934032120)*(v_rodc153826667934032120+v_rtdc153826667934032120)-(5.776000e-07))*3.141593e+00)"

variable rodc153826667934032130 atom "sqrt((x - (2.000000e-04))^2+(y - (1.000000e-03))^2+(z + (0.000000e+00))^2)"

variable rtdc153826667934032130 atom "sqrt((x - (-2.000000e-04))^2+(y - (1.000000e-03))^2+(z + (0.000000e+00))^2)"

variable ndc153826667934032130 atom "5.623874e+00*(v_rodc153826667934032130+v_rtdc153826667934032130)/(v_rodc153826667934032130*v_rtdc153826667934032130*((v_rodc153826667934032130+v_rtdc153826667934032130)*(v_rodc153826667934032130+v_rtdc153826667934032130)-(1.600000e-07))*3.141593e+00)"

variable rodc153826667934032200 atom "sqrt((x - (2.000000e-04))^2+(y - (1.000000e-03))^2+(z + (0.000000e+00))^2)"

variable rtdc153826667934032200 atom "sqrt((x - (2.000000e-04))^2+(y - (2.400000e-04))^2+(z + (0.000000e+00))^2)"

variable ndc153826667934032200 atom "-7.804913e+00*(v_rodc153826667934032200+v_rtdc153826667934032200)/(v_rodc153826667934032200*v_rtdc153826667934032200*((v_rodc153826667934032200+v_rtdc153826667934032200)*(v_rodc153826667934032200+v_rtdc153826667934032200)-(5.776000e-07))*3.141593e+00)"

variable rodc153826667934032210 atom "sqrt((x - (2.000000e-04))^2+(y - (2.400000e-04))^2+(z + (0.000000e+00))^2)"

variable rtdc153826667934032210 atom "sqrt((x - (8.000000e-04))^2+(y - (2.400000e-04))^2+(z + (0.000000e+00))^2)"

variable ndc153826667934032210 atom "-7.804913e+00*(v_rodc153826667934032210+v_rtdc153826667934032210)/(v_rodc153826667934032210*v_rtdc153826667934032210*((v_rodc153826667934032210+v_rtdc153826667934032210)*(v_rodc153826667934032210+v_rtdc153826667934032210)-(3.600000e-07))*3.141593e+00)"

variable rodc153826667934032220 atom "sqrt((x - (8.000000e-04))^2+(y - (2.400000e-04))^2+(z + (0.000000e+00))^2)"

variable rtdc153826667934032220 atom "sqrt((x - (8.000000e-04))^2+(y - (1.000000e-03))^2+(z + (0.000000e+00))^2)"

variable ndc153826667934032220 atom "-7.804913e+00*(v_rodc153826667934032220+v_rtdc153826667934032220)/(v_rodc153826667934032220*v_rtdc153826667934032220*((v_rodc153826667934032220+v_rtdc153826667934032220)*(v_rodc153826667934032220+v_rtdc153826667934032220)-(5.776000e-07))*3.141593e+00)"

variable rodc153826667934032230 atom "sqrt((x - (8.000000e-04))^2+(y - (1.000000e-03))^2+(z + (0.000000e+00))^2)"

variable rtdc153826667934032230 atom "sqrt((x - (2.000000e-04))^2+(y - (1.000000e-03))^2+(z + (0.000000e+00))^2)"

variable ndc153826667934032230 atom "-7.804913e+00*(v_rodc153826667934032230+v_rtdc153826667934032230)/(v_rodc153826667934032230*v_rtdc153826667934032230*((v_rodc153826667934032230+v_rtdc153826667934032230)*(v_rodc153826667934032230+v_rtdc153826667934032230)-(3.600000e-07))*3.141593e+00)"

variable rodc153826667934032300 atom "sqrt((x - (-8.000000e-04))^2+(y - (-2.400000e-04))^2+(z + (0.000000e+00))^2)"

variable rtdc153826667934032300 atom "sqrt((x - (-8.000000e-04))^2+(y - (-1.000000e-03))^2+(z + (0.000000e+00))^2)"

variable ndc153826667934032300 atom "-7.804913e+00*(v_rodc153826667934032300+v_rtdc153826667934032300)/(v_rodc153826667934032300*v_rtdc153826667934032300*((v_rodc153826667934032300+v_rtdc153826667934032300)*(v_rodc153826667934032300+v_rtdc153826667934032300)-(5.776000e-07))*3.141593e+00)"

variable rodc153826667934032310 atom "sqrt((x - (-8.000000e-04))^2+(y - (-1.000000e-03))^2+(z + (0.000000e+00))^2)"

variable rtdc153826667934032310 atom "sqrt((x - (-2.000000e-04))^2+(y - (-1.000000e-03))^2+(z + (0.000000e+00))^2)"

variable ndc153826667934032310 atom "-7.804913e+00*(v_rodc153826667934032310+v_rtdc153826667934032310)/(v_rodc153826667934032310*v_rtdc153826667934032310*((v_rodc153826667934032310+v_rtdc153826667934032310)*(v_rodc153826667934032310+v_rtdc153826667934032310)-(3.600000e-07))*3.141593e+00)"

variable rodc153826667934032320 atom "sqrt((x - (-2.000000e-04))^2+(y - (-1.000000e-03))^2+(z + (0.000000e+00))^2)"

variable rtdc153826667934032320 atom "sqrt((x - (-2.000000e-04))^2+(y - (-2.400000e-04))^2+(z + (0.000000e+00))^2)"

variable ndc153826667934032320 atom "-7.804913e+00*(v_rodc153826667934032320+v_rtdc153826667934032320)/(v_rodc153826667934032320*v_rtdc153826667934032320*((v_rodc153826667934032320+v_rtdc153826667934032320)*(v_rodc153826667934032320+v_rtdc153826667934032320)-(5.776000e-07))*3.141593e+00)"

variable rodc153826667934032330 atom "sqrt((x - (-2.000000e-04))^2+(y - (-2.400000e-04))^2+(z + (0.000000e+00))^2)"

variable rtdc153826667934032330 atom "sqrt((x - (-8.000000e-04))^2+(y - (-2.400000e-04))^2+(z + (0.000000e+00))^2)"

variable ndc153826667934032330 atom "-7.804913e+00*(v_rodc153826667934032330+v_rtdc153826667934032330)/(v_rodc153826667934032330*v_rtdc153826667934032330*((v_rodc153826667934032330+v_rtdc153826667934032330)*(v_rodc153826667934032330+v_rtdc153826667934032330)-(3.600000e-07))*3.141593e+00)"

variable rodc153826667934032400 atom "sqrt((x - (-2.000000e-04))^2+(y - (-2.400000e-04))^2+(z + (0.000000e+00))^2)"

variable rtdc153826667934032400 atom "sqrt((x - (-2.000000e-04))^2+(y - (-1.000000e-03))^2+(z + (0.000000e+00))^2)"

variable ndc153826667934032400 atom "7.804913e+00*(v_rodc153826667934032400+v_rtdc153826667934032400)/(v_rodc153826667934032400*v_rtdc153826667934032400*((v_rodc153826667934032400+v_rtdc153826667934032400)*(v_rodc153826667934032400+v_rtdc153826667934032400)-(5.776000e-07))*3.141593e+00)"

variable rodc153826667934032410 atom "sqrt((x - (-2.000000e-04))^2+(y - (-1.000000e-03))^2+(z + (0.000000e+00))^2)"

variable rtdc153826667934032410 atom "sqrt((x - (2.000000e-04))^2+(y - (-1.000000e-03))^2+(z + (0.000000e+00))^2)"

variable ndc153826667934032410 atom "7.804913e+00*(v_rodc153826667934032410+v_rtdc153826667934032410)/(v_rodc153826667934032410*v_rtdc153826667934032410*((v_rodc153826667934032410+v_rtdc153826667934032410)*(v_rodc153826667934032410+v_rtdc153826667934032410)-(1.600000e-07))*3.141593e+00)"

variable rodc153826667934032420 atom "sqrt((x - (2.000000e-04))^2+(y - (-1.000000e-03))^2+(z + (0.000000e+00))^2)"

variable rtdc153826667934032420 atom "sqrt((x - (2.000000e-04))^2+(y - (-2.400000e-04))^2+(z + (0.000000e+00))^2)"

variable ndc153826667934032420 atom "7.804913e+00*(v_rodc153826667934032420+v_rtdc153826667934032420)/(v_rodc153826667934032420*v_rtdc153826667934032420*((v_rodc153826667934032420+v_rtdc153826667934032420)*(v_rodc153826667934032420+v_rtdc153826667934032420)-(5.776000e-07))*3.141593e+00)"

variable rodc153826667934032430 atom "sqrt((x - (2.000000e-04))^2+(y - (-2.400000e-04))^2+(z + (0.000000e+00))^2)"

variable rtdc153826667934032430 atom "sqrt((x - (-2.000000e-04))^2+(y - (-2.400000e-04))^2+(z + (0.000000e+00))^2)"

variable ndc153826667934032430 atom "7.804913e+00*(v_rodc153826667934032430+v_rtdc153826667934032430)/(v_rodc153826667934032430*v_rtdc153826667934032430*((v_rodc153826667934032430+v_rtdc153826667934032430)*(v_rodc153826667934032430+v_rtdc153826667934032430)-(1.600000e-07))*3.141593e+00)"

variable rodc153826667934032500 atom "sqrt((x - (2.000000e-04))^2+(y - (-2.400000e-04))^2+(z + (0.000000e+00))^2)"

variable rtdc153826667934032500 atom "sqrt((x - (2.000000e-04))^2+(y - (-1.000000e-03))^2+(z + (0.000000e+00))^2)"

variable ndc153826667934032500 atom "-7.804913e+00*(v_rodc153826667934032500+v_rtdc153826667934032500)/(v_rodc153826667934032500*v_rtdc153826667934032500*((v_rodc153826667934032500+v_rtdc153826667934032500)*(v_rodc153826667934032500+v_rtdc153826667934032500)-(5.776000e-07))*3.141593e+00)"

variable rodc153826667934032510 atom "sqrt((x - (2.000000e-04))^2+(y - (-1.000000e-03))^2+(z + (0.000000e+00))^2)"

variable rtdc153826667934032510 atom "sqrt((x - (8.000000e-04))^2+(y - (-1.000000e-03))^2+(z + (0.000000e+00))^2)"

variable ndc153826667934032510 atom "-7.804913e+00*(v_rodc153826667934032510+v_rtdc153826667934032510)/(v_rodc153826667934032510*v_rtdc153826667934032510*((v_rodc153826667934032510+v_rtdc153826667934032510)*(v_rodc153826667934032510+v_rtdc153826667934032510)-(3.600000e-07))*3.141593e+00)"

variable rodc153826667934032520 atom "sqrt((x - (8.000000e-04))^2+(y - (-1.000000e-03))^2+(z + (0.000000e+00))^2)"

variable rtdc153826667934032520 atom "sqrt((x - (8.000000e-04))^2+(y - (-2.400000e-04))^2+(z + (0.000000e+00))^2)"

variable ndc153826667934032520 atom "-7.804913e+00*(v_rodc153826667934032520+v_rtdc153826667934032520)/(v_rodc153826667934032520*v_rtdc153826667934032520*((v_rodc153826667934032520+v_rtdc153826667934032520)*(v_rodc153826667934032520+v_rtdc153826667934032520)-(5.776000e-07))*3.141593e+00)"

variable rodc153826667934032530 atom "sqrt((x - (8.000000e-04))^2+(y - (-2.400000e-04))^2+(z + (0.000000e+00))^2)"

variable rtdc153826667934032530 atom "sqrt((x - (2.000000e-04))^2+(y - (-2.400000e-04))^2+(z + (0.000000e+00))^2)"

variable ndc153826667934032530 atom "-7.804913e+00*(v_rodc153826667934032530+v_rtdc153826667934032530)/(v_rodc153826667934032530*v_rtdc153826667934032530*((v_rodc153826667934032530+v_rtdc153826667934032530)*(v_rodc153826667934032530+v_rtdc153826667934032530)-(3.600000e-07))*3.141593e+00)"

variable rodc153826667934032600 atom "sqrt((x - (-3.000000e-03))^2+(y - (1.400000e-04))^2+(z + (0.000000e+00))^2)"

variable rtdc153826667934032600 atom "sqrt((x - (-3.000000e-03))^2+(y - (0.000000e+00))^2+(z + (0.000000e+00))^2)"

variable ndc153826667934032600 atom "8.386008e-01*(v_rodc153826667934032600+v_rtdc153826667934032600)/(v_rodc153826667934032600*v_rtdc153826667934032600*((v_rodc153826667934032600+v_rtdc153826667934032600)*(v_rodc153826667934032600+v_rtdc153826667934032600)-(1.960000e-08))*3.141593e+00)"

variable rodc153826667934032610 atom "sqrt((x - (-3.000000e-03))^2+(y - (0.000000e+00))^2+(z + (0.000000e+00))^2)"

variable rtdc153826667934032610 atom "sqrt((x - (3.000000e-03))^2+(y - (0.000000e+00))^2+(z + (0.000000e+00))^2)"

variable ndc153826667934032610 atom "8.386008e-01*(v_rodc153826667934032610+v_rtdc153826667934032610)/(v_rodc153826667934032610*v_rtdc153826667934032610*((v_rodc153826667934032610+v_rtdc153826667934032610)*(v_rodc153826667934032610+v_rtdc153826667934032610)-(3.600000e-05))*3.141593e+00)"

variable rodc153826667934032620 atom "sqrt((x - (3.000000e-03))^2+(y - (0.000000e+00))^2+(z + (0.000000e+00))^2)"

variable rtdc153826667934032620 atom "sqrt((x - (3.000000e-03))^2+(y - (1.400000e-04))^2+(z + (0.000000e+00))^2)"

variable ndc153826667934032620 atom "8.386008e-01*(v_rodc153826667934032620+v_rtdc153826667934032620)/(v_rodc153826667934032620*v_rtdc153826667934032620*((v_rodc153826667934032620+v_rtdc153826667934032620)*(v_rodc153826667934032620+v_rtdc153826667934032620)-(1.960000e-08))*3.141593e+00)"

variable rodc153826667934032630 atom "sqrt((x - (3.000000e-03))^2+(y - (1.400000e-04))^2+(z + (0.000000e+00))^2)"

variable rtdc153826667934032630 atom "sqrt((x - (-3.000000e-03))^2+(y - (1.400000e-04))^2+(z + (0.000000e+00))^2)"

variable ndc153826667934032630 atom "8.386008e-01*(v_rodc153826667934032630+v_rtdc153826667934032630)/(v_rodc153826667934032630*v_rtdc153826667934032630*((v_rodc153826667934032630+v_rtdc153826667934032630)*(v_rodc153826667934032630+v_rtdc153826667934032630)-(3.600000e-05))*3.141593e+00)"

variable oscEX153826667934032 atom "(1.000000e-04)*(z + (0.000000e+00))*v_n153826667934032000*cos(v_phase153826667934032) + 0 + (-1.000000e-04)*(z + (0.000000e+00))*v_n153826667934032020*cos(v_phase153826667934032) + 0 + (3.800000e-04)*(z + (0.000000e+00))*v_n153826667934032100*cos(v_phase153826667934032) + 0 + (-3.800000e-04)*(z + (0.000000e+00))*v_n153826667934032120*cos(v_phase153826667934032) + 0 + (1.400000e-04)*(z + (0.000000e+00))*v_n153826667934032140*cos(v_phase153826667934032) + 0 + (-1.400000e-04)*(z + (0.000000e+00))*v_n153826667934032160*cos(v_phase153826667934032) + 0+(7.600000e-04)*(z + (0.000000e+00))*v_ndc153826667934032000 + 0 + (-7.600000e-04)*(z + (0.000000e+00))*v_ndc153826667934032020 + 0 + (7.600000e-04)*(z + (0.000000e+00))*v_ndc153826667934032100 + 0 + (-7.600000e-04)*(z + (0.000000e+00))*v_ndc153826667934032120 + 0 + (7.600000e-04)*(z + (0.000000e+00))*v_ndc153826667934032200 + 0 + (-7.600000e-04)*(z + (0.000000e+00))*v_ndc153826667934032220 + 0 + (7.600000e-04)*(z + (0.000000e+00))*v_ndc153826667934032300 + 0 + (-7.600000e-04)*(z + (0.000000e+00))*v_ndc153826667934032320 + 0 + (7.600000e-04)*(z + (0.000000e+00))*v_ndc153826667934032400 + 0 + (-7.600000e-04)*(z + (0.000000e+00))*v_ndc153826667934032420 + 0 + (7.600000e-04)*(z + (0.000000e+00))*v_ndc153826667934032500 + 0 + (-7.600000e-04)*(z + (0.000000e+00))*v_ndc153826667934032520 + 0 + (1.400000e-04)*(z + (0.000000e+00))*v_ndc153826667934032600 + 0 + (-1.400000e-04)*(z + (0.000000e+00))*v_ndc153826667934032620 + 0"
variable oscEY153826667934032 atom "0 + (6.000000e-03)*(z + (0.000000e+00))*v_n153826667934032010*cos(v_phase153826667934032) + 0 + (-6.000000e-03)*(z + (0.000000e+00))*v_n153826667934032030*cos(v_phase153826667934032) + 0 + (6.000000e-03)*(z + (0.000000e+00))*v_n153826667934032110*cos(v_phase153826667934032) + 0 + 0 + 0 + (-6.000000e-03)*(z + (0.000000e+00))*v_n153826667934032150*cos(v_phase153826667934032) + 0 + 0+0 + (6.000000e-04)*(z + (0.000000e+00))*v_ndc153826667934032010 + 0 + (-6.000000e-04)*(z + (0.000000e+00))*v_ndc153826667934032030 + 0 + (4.000000e-04)*(z + (0.000000e+00))*v_ndc153826667934032110 + 0 + (-4.000000e-04)*(z + (0.000000e+00))*v_ndc153826667934032130 + 0 + (6.000000e-04)*(z + (0.000000e+00))*v_ndc153826667934032210 + 0 + (-6.000000e-04)*(z + (0.000000e+00))*v_ndc153826667934032230 + 0 + (6.000000e-04)*(z + (0.000000e+00))*v_ndc153826667934032310 + 0 + (-6.000000e-04)*(z + (0.000000e+00))*v_ndc153826667934032330 + 0 + (4.000000e-04)*(z + (0.000000e+00))*v_ndc153826667934032410 + 0 + (-4.000000e-04)*(z + (0.000000e+00))*v_ndc153826667934032430 + 0 + (6.000000e-04)*(z + (0.000000e+00))*v_ndc153826667934032510 + 0 + (-6.000000e-04)*(z + (0.000000e+00))*v_ndc153826667934032530 + 0 + (6.000000e-03)*(z + (0.000000e+00))*v_ndc153826667934032610 + 0 + (-6.000000e-03)*(z + (0.000000e+00))*v_ndc153826667934032630"
variable oscEZ153826667934032 atom "(-3.000000e-07 - (0.000000e+00)*y - (1.000000e-04)*x)*v_n153826667934032000*cos(v_phase153826667934032) + (8.400000e-07 - (6.000000e-03)*y - (0.000000e+00)*x)*v_n153826667934032010*cos(v_phase153826667934032) + (-3.000000e-07 - (0.000000e+00)*y - (-1.000000e-04)*x)*v_n153826667934032020*cos(v_phase153826667934032) + (-1.440000e-06 - (-6.000000e-03)*y - (0.000000e+00)*x)*v_n153826667934032030*cos(v_phase153826667934032) + (-1.140000e-06 - (0.000000e+00)*y - (3.800000e-04)*x)*v_n153826667934032100*cos(v_phase153826667934032) + (-1.440000e-06 - (6.000000e-03)*y - (0.000000e+00)*x)*v_n153826667934032110*cos(v_phase153826667934032) + (-1.140000e-06 - (0.000000e+00)*y - (-3.800000e-04)*x)*v_n153826667934032120*cos(v_phase153826667934032) + (0.000000e+00 - (0.000000e+00)*y - (0.000000e+00)*x)*v_n153826667934032130*cos(v_phase153826667934032) + (4.200000e-07 - (0.000000e+00)*y - (1.400000e-04)*x)*v_n153826667934032140*cos(v_phase153826667934032) + (-0.000000e+00 - (-6.000000e-03)*y - (0.000000e+00)*x)*v_n153826667934032150*cos(v_phase153826667934032) + (4.200000e-07 - (0.000000e+00)*y - (-1.400000e-04)*x)*v_n153826667934032160*cos(v_phase153826667934032) + (0.000000e+00 - (0.000000e+00)*y - (0.000000e+00)*x)*v_n153826667934032170*cos(v_phase153826667934032)+(-6.080000e-07 - (0.000000e+00)*y - (7.600000e-04)*x)*v_ndc153826667934032000 + (1.440000e-07 - (6.000000e-04)*y - (0.000000e+00)*x)*v_ndc153826667934032010 + (1.520000e-07 - (0.000000e+00)*y - (-7.600000e-04)*x)*v_ndc153826667934032020 + (-6.000000e-07 - (-6.000000e-04)*y - (0.000000e+00)*x)*v_ndc153826667934032030 + (-1.520000e-07 - (0.000000e+00)*y - (7.600000e-04)*x)*v_ndc153826667934032100 + (9.600000e-08 - (4.000000e-04)*y - (0.000000e+00)*x)*v_ndc153826667934032110 + (-1.520000e-07 - (0.000000e+00)*y - (-7.600000e-04)*x)*v_ndc153826667934032120 + (-4.000000e-07 - (-4.000000e-04)*y - (0.000000e+00)*x)*v_ndc153826667934032130 + (1.520000e-07 - (0.000000e+00)*y - (7.600000e-04)*x)*v_ndc153826667934032200 + (1.440000e-07 - (6.000000e-04)*y - (0.000000e+00)*x)*v_ndc153826667934032210 + (-6.080000e-07 - (0.000000e+00)*y - (-7.600000e-04)*x)*v_ndc153826667934032220 + (-6.000000e-07 - (-6.000000e-04)*y - (0.000000e+00)*x)*v_ndc153826667934032230 + (-6.080000e-07 - (0.000000e+00)*y - (7.600000e-04)*x)*v_ndc153826667934032300 + (-6.000000e-07 - (6.000000e-04)*y - (0.000000e+00)*x)*v_ndc153826667934032310 + (1.520000e-07 - (0.000000e+00)*y - (-7.600000e-04)*x)*v_ndc153826667934032320 + (1.440000e-07 - (-6.000000e-04)*y - (0.000000e+00)*x)*v_ndc153826667934032330 + (-1.520000e-07 - (0.000000e+00)*y - (7.600000e-04)*x)*v_ndc153826667934032400 + (-4.000000e-07 - (4.000000e-04)*y - (0.000000e+00)*x)*v_ndc153826667934032410 + (-1.520000e-07 - (0.000000e+00)*y - (-7.600000e-04)*x)*v_ndc153826667934032420 + (9.600000e-08 - (-4.000000e-04)*y - (0.000000e+00)*x)*v_ndc153826667934032430 + (1.520000e-07 - (0.000000e+00)*y - (7.600000e-04)*x)*v_ndc153826667934032500 + (-6.000000e-07 - (6.000000e-04)*y - (0.000000e+00)*x)*v_ndc153826667934032510 + (-6.080000e-07 - (0.000000e+00)*y - (-7.600000e-04)*x)*v_ndc153826667934032520 + (1.440000e-07 - (-6.000000e-04)*y - (0.000000e+00)*x)*v_ndc153826667934032530 + (-4.200000e-07 - (0.000000e+00)*y - (1.400000e-04)*x)*v_ndc153826667934032600 + (0.000000e+00 - (6.000000e-03)*y - (0.000000e+00)*x)*v_ndc153826667934032610 + (-4.200000e-07 - (0.000000e+00)*y - (-1.400000e-04)*x)*v_ndc153826667934032620 + (-8.400000e-07 - (-6.000000e-03)*y - (0.000000e+00)*x)*v_ndc153826667934032630"
fix 153826667934032 all efield v_oscEX153826667934032 v_oscEY153826667934032 v_oscEZ153826667934032


velocity all create 5.000000e+00 25769 mom no rot yes dist gaussian


# Adding a langevin bath...
fix 6546929037072 all langevin 1.000000e-05 1.000000e-05 1.000000e-07 1337

dump 4364626471440 all custom 10 positions.txt id x y z

dump 4364626471184 all custom 10 velocities.txt id vx vy vz


# Run simulation
run 20000

